certificates/rado_a9_c100_N16.cnf
c Rad2 upper bound instance: x1 + 9*x2 - x3 = 100, interval [1,16]
p cnf 16 56
1 9 12 0
-1 -9 -12 0
1 2 11 0
-1 -2 -11 0
2 10 12 0
-2 -10 -12 0
2 3 11 0
-2 -3 -11 0
3 11 12 0
-3 -11 -12 0
3 4 11 0
-3 -4 -11 0
4 12 0
-4 -12 0
4 5 11 0
-4 -5 -11 0
5 12 13 0
-5 -12 -13 0
5 6 11 0
-5 -6 -11 0
6 12 14 0
-6 -12 -14 0
6 7 11 0
-6 -7 -11 0
7 12 15 0
-7 -12 -15 0
7 8 11 0
-7 -8 -11 0
8 12 16 0
-8 -12 -16 0
8 9 11 0
-8 -9 -11 0
9 10 11 0
-9 -10 -11 0
1 10 11 0
-1 -10 -11 0
10 11 0
-10 -11 0
11 12 0
-11 -12 0
3 10 13 0
-3 -10 -13 0
11 12 13 0
-11 -12 -13 0
4 10 14 0
-4 -10 -14 0
11 13 14 0
-11 -13 -14 0
5 10 15 0
-5 -10 -15 0
11 14 15 0
-11 -14 -15 0
6 10 16 0
-6 -10 -16 0
11 15 16 0
-11 -15 -16 0
