certificates/rado_a9_c100_N16.drat
-15 -16 0
d -15 -11 -16 0
-12 -16 0
d -8 -12 -16 0
-16 0
12 0
-4 0
-11 0
3 0
5 0
10 0
15 0
-13 0
0
